Geographic Exponential Decay
40 109 107 222 117 282 230 120 210 221 281 112 54 204 8 255 254 129 83 96 187 287 245 258 134 191 173 301 142 141 158 31 280 138 217 67 75 305 30 286 240
p edge 320 327
e 0 137 3.0
e 1 310 18.0
e 1 0 6.0
e 2 126 2.0
e 2 1 1.0
e 3 63 9.0
e 3 300 5.0
e 3 2 4.0
e 4 24 1.0
e 4 3 19.0
e 5 53 8.0
e 5 4 1.0
e 6 110 2.0
e 6 5 5.0
e 7 191 39.0
e 7 6 4.0
e 8 309 43.0
e 8 30 30.0
e 8 21 57.0
e 8 254 22.0
e 8 35 3.0
e 9 94 2.0
e 9 7 4.0
e 10 59 10.0
e 10 9 1.0
e 11 217 15.0
e 12 158 63.0
e 13 247 3.0
e 13 10 2.0
e 14 199 7.0
e 14 13 2.0
e 15 226 8.0
e 15 14 1.0
e 16 248 1.0
e 16 15 1.0
e 17 83 39.0
e 17 16 2.0
e 18 31 10.0
e 19 115 4.0
e 19 17 4.0
e 20 114 5.0
e 20 19 4.0
e 22 62 24.0
e 22 20 3.0
e 23 233 3.0
e 25 161 1.0
e 25 22 4.0
e 26 315 15.0
e 26 195 23.0
e 27 28 3.0
e 27 25 1.0
e 29 314 13.0
e 29 194 16.0
e 29 27 22.0
e 30 284 46.0
e 30 188 89.0
e 30 167 8.0
e 30 31 16.0
e 31 225 40.0
e 31 32 49.0
e 31 106 23.0
e 33 181 1.0
e 33 29 22.0
e 34 289 5.0
e 34 33 3.0
e 36 37 1.0
e 36 34 3.0
e 38 245 88.0
e 39 299 6.0
e 39 36 6.0
e 40 166 11.0
e 40 39 4.0
e 41 176 4.0
e 42 124 42.0
e 43 262 7.0
e 43 40 12.0
e 44 186 1.0
e 44 43 10.0
e 45 46 1.0
e 45 44 2.0
e 47 122 10.0
e 47 200 12.0
e 47 45 11.0
e 48 162 7.0
e 48 47 21.0
e 49 295 5.0
e 49 119 30.0
e 49 135 41.0
e 49 48 44.0
e 50 244 28.0
e 51 64 2.0
e 51 49 23.0
e 52 279 9.0
e 52 51 10.0
e 54 55 12.0
e 54 316 100.0
e 54 157 16.0
e 54 296 45.0
e 54 56 96.0
e 54 52 25.0
e 57 69 4.0
e 57 54 24.0
e 58 129 44.0
e 58 57 2.0
e 59 264 15.0
e 60 309 15.0
e 61 257 9.0
e 61 58 9.0
e 62 244 36.0
e 65 66 1.0
e 65 61 1.0
e 67 76 26.0
e 67 298 79.0
e 67 184 7.0
e 67 68 72.0
e 67 70 35.0
e 67 65 97.0
e 71 282 97.0
e 72 261 3.0
e 72 67 84.0
e 73 180 9.0
e 73 72 6.0
e 74 197 3.0
e 74 73 5.0
e 75 107 48.0
e 75 274 32.0
e 75 77 65.0
e 75 116 3.0
e 75 156 75.0
e 77 144 24.0
e 78 317 7.0
e 79 268 1.0
e 79 74 2.0
e 80 318 4.0
e 80 79 2.0
e 81 82 4.0
e 81 80 5.0
e 83 136 23.0
e 83 98 56.0
e 83 269 42.0
e 83 270 62.0
e 84 282 37.0
e 85 207 2.0
e 85 81 1.0
e 86 129 55.0
e 87 96 67.0
e 88 89 1.0
e 88 85 1.0
e 90 91 1.0
e 90 251 37.0
e 90 92 21.0
e 90 88 19.0
e 93 163 9.0
e 93 90 49.0
e 95 306 14.0
e 96 164 72.0
e 96 189 68.0
e 96 97 99.0
e 96 241 31.0
e 99 100 7.0
e 99 93 4.0
e 101 107 33.0
e 101 210 4.0
e 102 103 2.0
e 102 99 7.0
e 104 215 3.0
e 104 102 5.0
e 105 107 11.0
e 107 108 6.0
e 107 109 66.0
e 109 111 97.0
e 109 112 4.0
e 109 128 36.0
e 109 220 65.0
e 112 275 5.0
e 112 173 57.0
e 112 216 88.0
e 112 152 70.0
e 113 208 33.0
e 117 276 8.0
e 117 118 8.0
e 117 201 91.0
e 117 271 78.0
e 117 120 78.0
e 120 121 98.0
e 120 123 23.0
e 120 282 11.0
e 120 124 14.0
e 124 221 57.0
e 125 275 7.0
e 127 236 7.0
e 127 178 11.0
e 127 104 1.0
e 129 229 96.0
e 129 130 34.0
e 129 131 4.0
e 132 133 3.0
e 132 127 20.0
e 134 138 32.0
e 134 293 61.0
e 134 258 35.0
e 134 143 9.0
e 134 187 61.0
e 138 160 57.0
e 138 271 16.0
e 138 139 85.0
e 138 140 6.0
e 141 288 34.0
e 141 165 85.0
e 141 142 28.0
e 141 145 68.0
e 141 146 64.0
e 142 185 43.0
e 142 310 81.0
e 142 147 21.0
e 142 267 6.0
e 148 149 4.0
e 148 132 6.0
e 150 151 1.0
e 150 148 5.0
e 153 154 14.0
e 153 155 5.0
e 153 150 8.0
e 157 294 7.0
e 158 164 57.0
e 158 159 60.0
e 158 160 82.0
e 158 255 20.0
e 168 169 4.0
e 168 153 5.0
e 170 171 2.0
e 170 168 2.0
e 172 173 98.0
e 173 174 4.0
e 173 249 72.0
e 173 175 23.0
e 175 176 8.0
e 177 243 1.0
e 177 170 2.0
e 179 182 3.0
e 179 177 2.0
e 183 187 34.0
e 187 190 94.0
e 187 213 26.0
e 187 191 11.0
e 191 217 70.0
e 191 192 66.0
e 191 193 17.0
e 195 282 60.0
e 196 198 10.0
e 196 179 1.0
e 199 285 20.0
e 202 203 3.0
e 202 196 6.0
e 204 205 53.0
e 204 206 97.0
e 204 208 80.0
e 204 301 55.0
e 204 209 69.0
e 208 209 16.0
e 209 210 58.0
e 210 211 13.0
e 210 303 51.0
e 210 219 19.0
e 212 213 7.0
e 214 217 67.0
e 217 311 93.0
e 217 258 99.0
e 218 221 15.0
e 221 222 38.0
e 221 223 39.0
e 221 317 74.0
e 222 224 27.0
e 222 227 85.0
e 222 228 15.0
e 222 231 86.0
e 227 230 39.0
e 230 281 4.0
e 230 232 81.0
e 230 233 33.0
e 230 234 31.0
e 235 237 1.0
e 235 202 1.0
e 238 239 2.0
e 238 235 2.0
e 240 242 77.0
e 240 244 21.0
e 240 245 70.0
e 240 307 68.0
e 240 246 1.0
e 242 263 23.0
e 245 246 84.0
e 245 250 44.0
e 245 252 5.0
e 252 253 21.0
e 254 255 57.0
e 254 256 40.0
e 254 258 69.0
e 254 265 10.0
e 255 258 77.0
e 255 259 49.0
e 255 260 56.0
e 258 266 17.0
e 272 297 2.0
e 272 238 2.0
e 273 277 4.0
e 273 272 1.0
e 278 280 52.0
e 280 281 88.0
e 280 283 100.0
e 280 282 29.0
e 280 286 77.0
e 281 306 68.0
e 281 286 45.0
e 281 287 24.0
e 286 287 1.0
e 286 290 44.0
e 286 291 85.0
e 287 292 2.0
e 287 301 99.0
e 287 302 51.0
e 301 304 72.0
e 301 305 82.0
e 301 308 16.0
e 305 312 14.0
e 305 313 22.0
e 305 319 49.0
